p cnf 622 1800
r 0.5 1 2 3 4 5 6 7 8 9 10 11 12 13 14 15 16 17 18 19 20 0
e 21 22 23 24 25 26 27 28 29 30 31 32 33 34 35 36 37 38 39 40 41 42 43 44 45 46 47 48 49 50 51 52 53 54 55 56 57 58 59 60 61 62 63 64 65 66 67 68 69 70 71 72 73 74 75 76 77 78 79 80 81 82 83 84 85 86 87 88 89 90 91 92 93 94 95 96 97 98 99 100 101 102 103 104 105 106 107 108 109 110 111 112 113 114 115 116 117 118 119 120 121 122 123 124 125 126 127 128 129 130 131 132 133 134 135 136 137 138 139 140 141 142 143 144 145 146 147 148 149 150 151 152 153 154 155 156 157 158 159 160 161 162 163 164 165 166 167 168 169 170 171 172 173 174 175 176 177 178 179 180 181 182 183 184 185 186 187 188 189 190 191 192 193 194 195 196 197 198 199 200 201 202 203 204 205 206 207 208 209 210 211 212 213 214 215 216 217 218 219 220 221 222 223 224 225 226 227 228 229 230 231 232 233 234 235 236 237 238 239 240 241 242 243 244 245 246 247 248 249 250 251 252 253 254 255 256 257 258 259 260 261 262 263 264 265 266 267 268 269 270 271 272 273 274 275 276 277 278 279 280 281 282 283 284 285 286 287 288 289 290 291 292 293 294 295 296 297 298 299 300 301 302 303 304 305 306 307 308 309 310 311 312 313 314 315 316 317 318 319 320 321 322 323 324 325 326 327 328 329 330 331 332 333 334 335 336 337 338 339 340 341 342 343 344 345 346 347 348 349 350 351 352 353 354 355 356 357 358 359 360 361 362 363 364 365 366 367 368 369 370 371 372 373 374 375 376 377 378 379 380 381 382 383 384 385 386 387 388 389 390 391 392 393 394 395 396 397 398 399 400 401 402 403 404 405 406 407 408 409 410 411 412 413 414 415 416 417 418 419 420 421 422 423 424 425 426 427 428 429 430 431 432 433 434 435 436 437 438 439 440 441 442 443 444 445 446 447 448 449 450 451 452 453 454 455 456 457 458 459 460 461 462 463 464 465 466 467 468 469 470 471 472 473 474 475 476 477 478 479 480 481 482 483 484 485 486 487 488 489 490 491 492 493 494 495 496 497 498 499 500 501 502 503 504 505 506 507 508 509 510 511 512 513 514 515 516 517 518 519 520 521 522 523 524 525 526 527 528 529 530 531 532 533 534 535 536 537 538 539 540 541 542 543 544 545 546 547 548 549 550 551 552 553 554 555 556 557 558 559 560 561 562 563 564 565 566 567 568 569 570 571 572 573 574 575 576 577 578 579 580 581 582 583 584 585 586 587 588 589 590 591 592 593 594 595 596 597 598 599 600 601 602 603 604 605 606 607 608 609 610 611 612 613 614 615 616 617 618 619 620 621 622 0
-622 -21 1 0
-621 -22 2 0
-620 -23 3 0
-619 -24 4 0
-618 -25 5 0
-617 -26 6 0
-616 -27 7 0
-615 -28 8 0
-614 -29 9 0
-613 -30 10 0
-612 -31 11 0
-611 -32 12 0
-610 -33 13 0
-609 -34 14 0
-608 -35 15 0
-607 -36 16 0
-606 -37 17 0
-605 -38 18 0
-604 -39 19 0
-603 -40 20 0
-602 1 0
-602 -21 0
-601 21 0
-601 -1 0
-600 2 0
-600 -22 0
-599 22 0
-599 -2 0
-598 3 0
-598 -23 0
-597 23 0
-597 -3 0
-596 4 0
-596 -24 0
-595 24 0
-595 -4 0
-594 5 0
-594 -25 0
-593 25 0
-593 -5 0
-592 6 0
-592 -26 0
-591 26 0
-591 -6 0
-590 7 0
-590 -27 0
-589 27 0
-589 -7 0
-588 8 0
-588 -28 0
-587 28 0
-587 -8 0
-586 9 0
-586 -29 0
-585 29 0
-585 -9 0
-584 10 0
-584 -30 0
-583 30 0
-583 -10 0
-582 11 0
-582 -31 0
-581 31 0
-581 -11 0
-580 12 0
-580 -32 0
-579 32 0
-579 -12 0
-578 13 0
-578 -33 0
-577 33 0
-577 -13 0
-576 14 0
-576 -34 0
-575 34 0
-575 -14 0
-574 15 0
-574 -35 0
-573 35 0
-573 -15 0
-572 16 0
-572 -36 0
-571 36 0
-571 -16 0
-570 17 0
-570 -37 0
-569 37 0
-569 -17 0
-568 18 0
-568 -38 0
-567 38 0
-567 -18 0
-566 19 0
-566 -39 0
-565 39 0
-565 -19 0
-564 20 0
-564 -40 0
-563 40 0
-563 -20 0
-562 602 601 600 599 598 597 596 595 594 593 592 591 590 589 588 587 586 585 584 583 582 581 580 579 578 577 576 575 574 573 572 571 570 569 568 567 566 565 564 563 0
-561 14 0
-561 15 0
-561 2 0
-561 13 0
-561 -3 0
-560 17 0
-560 15 0
-560 18 0
-560 -3 0
-559 15 0
-559 14 0
-559 11 0
-559 5 0
-559 -3 0
-558 20 0
-558 18 0
-558 11 0
-558 -3 0
-557 5 0
-557 14 0
-557 4 0
-557 7 0
-557 -3 0
-556 10 0
-556 7 0
-556 1 0
-556 6 0
-556 -3 0
-555 18 0
-555 7 0
-555 10 0
-555 6 0
-555 -3 0
-554 6 0
-554 8 0
-554 2 0
-554 14 0
-554 -3 0
-553 1 0
-553 16 0
-553 4 0
-553 -3 0
-552 15 0
-552 19 0
-552 12 0
-552 20 0
-552 -3 0
-551 11 0
-551 9 0
-551 6 0
-551 10 0
-551 -13 0
-550 9 0
-550 2 0
-550 15 0
-550 10 0
-550 -13 0
-549 11 0
-549 18 0
-549 8 0
-549 1 0
-549 -13 0
-548 20 0
-548 6 0
-548 11 0
-548 16 0
-548 -13 0
-547 6 0
-547 1 0
-547 9 0
-547 -13 0
-546 12 0
-546 16 0
-546 18 0
-546 7 0
-546 -13 0
-545 6 0
-545 2 0
-545 4 0
-545 1 0
-545 -13 0
-544 18 0
-544 2 0
-544 7 0
-544 3 0
-544 -13 0
-543 6 0
-543 19 0
-543 9 0
-543 3 0
-543 -13 0
-542 7 0
-542 5 0
-542 20 0
-542 -13 0
-541 18 0
-541 2 0
-541 9 0
-541 4 0
-541 -17 0
-540 9 0
-540 4 0
-540 18 0
-540 16 0
-540 -17 0
-539 10 0
-539 9 0
-539 8 0
-539 20 0
-539 -17 0
-538 16 0
-538 20 0
-538 1 0
-538 6 0
-538 -17 0
-537 12 0
-537 19 0
-537 -17 0
-536 15 0
-536 16 0
-536 20 0
-536 10 0
-536 -17 0
-535 5 0
-535 16 0
-535 12 0
-535 20 0
-535 -17 0
-534 8 0
-534 10 0
-534 4 0
-534 -17 0
-533 20 0
-533 4 0
-533 8 0
-533 15 0
-533 -17 0
-532 18 0
-532 4 0
-532 12 0
-532 11 0
-532 -17 0
-531 1 0
-531 2 0
-531 4 0
-531 20 0
-531 -8 0
-530 11 0
-530 10 0
-530 19 0
-530 -8 0
-529 20 0
-529 19 0
-529 11 0
-529 -8 0
-528 10 0
-528 7 0
-528 4 0
-528 14 0
-528 -8 0
-527 10 0
-527 7 0
-527 15 0
-527 18 0
-527 -8 0
-526 13 0
-526 16 0
-526 11 0
-526 20 0
-526 -8 0
-525 11 0
-525 13 0
-525 9 0
-525 2 0
-525 -8 0
-524 11 0
-524 19 0
-524 7 0
-524 -8 0
-523 10 0
-523 19 0
-523 1 0
-523 11 0
-523 -8 0
-522 3 0
-522 4 0
-522 5 0
-522 11 0
-522 -8 0
-521 9 0
-521 14 0
-521 20 0
-521 10 0
-521 -19 0
-520 13 0
-520 16 0
-520 1 0
-520 7 0
-520 -19 0
-519 7 0
-519 13 0
-519 10 0
-519 -19 0
-518 20 0
-518 8 0
-518 -19 0
-517 14 0
-517 18 0
-517 16 0
-517 15 0
-517 -19 0
-516 6 0
-516 5 0
-516 16 0
-516 12 0
-516 -19 0
-515 6 0
-515 1 0
-515 3 0
-515 15 0
-515 -19 0
-514 9 0
-514 3 0
-514 10 0
-514 -19 0
-513 3 0
-513 5 0
-513 8 0
-513 7 0
-513 -19 0
-512 7 0
-512 13 0
-512 12 0
-512 1 0
-512 -19 0
-511 19 0
-511 10 0
-511 2 0
-511 -1 0
-510 3 0
-510 15 0
-510 8 0
-510 18 0
-510 -1 0
-509 20 0
-509 8 0
-509 17 0
-509 5 0
-509 -1 0
-508 20 0
-508 7 0
-508 17 0
-508 -1 0
-507 14 0
-507 17 0
-507 13 0
-507 -1 0
-506 3 0
-506 6 0
-506 4 0
-506 8 0
-506 -1 0
-505 8 0
-505 6 0
-505 16 0
-505 10 0
-505 -1 0
-504 20 0
-504 3 0
-504 11 0
-504 7 0
-504 -1 0
-503 5 0
-503 19 0
-503 4 0
-503 8 0
-503 -1 0
-502 14 0
-502 15 0
-502 9 0
-502 -1 0
-501 12 0
-501 9 0
-501 17 0
-501 18 0
-501 -10 0
-500 19 0
-500 11 0
-500 7 0
-500 -10 0
-499 1 0
-499 12 0
-499 11 0
-499 -10 0
-498 13 0
-498 1 0
-498 7 0
-498 6 0
-498 -10 0
-497 5 0
-497 20 0
-497 1 0
-497 7 0
-497 -10 0
-496 20 0
-496 17 0
-496 1 0
-496 14 0
-496 -10 0
-495 16 0
-495 17 0
-495 6 0
-495 2 0
-495 -10 0
-494 11 0
-494 18 0
-494 4 0
-494 5 0
-494 -10 0
-493 14 0
-493 9 0
-493 3 0
-493 15 0
-493 -10 0
-492 8 0
-492 9 0
-492 3 0
-492 4 0
-492 -10 0
-491 3 0
-491 10 0
-491 6 0
-491 20 0
-491 -2 0
-490 9 0
-490 6 0
-490 15 0
-490 -2 0
-489 12 0
-489 8 0
-489 9 0
-489 5 0
-489 -2 0
-488 18 0
-488 17 0
-488 14 0
-488 -2 0
-487 5 0
-487 10 0
-487 19 0
-487 -2 0
-486 10 0
-486 7 0
-486 4 0
-486 1 0
-486 -2 0
-485 20 0
-485 11 0
-485 5 0
-485 18 0
-485 -2 0
-484 11 0
-484 16 0
-484 17 0
-484 9 0
-484 -2 0
-483 13 0
-483 11 0
-483 20 0
-483 14 0
-483 -2 0
-482 15 0
-482 9 0
-482 13 0
-482 -2 0
-481 20 0
-481 15 0
-481 -5 0
-480 9 0
-480 1 0
-480 11 0
-480 8 0
-480 -5 0
-479 11 0
-479 17 0
-479 10 0
-479 9 0
-479 -5 0
-478 2 0
-478 16 0
-478 11 0
-478 -5 0
-477 7 0
-477 16 0
-477 8 0
-477 3 0
-477 -5 0
-476 2 0
-476 19 0
-476 7 0
-476 -5 0
-475 20 0
-475 17 0
-475 18 0
-475 9 0
-475 -5 0
-474 4 0
-474 3 0
-474 16 0
-474 1 0
-474 -5 0
-473 15 0
-473 17 0
-473 18 0
-473 16 0
-473 -5 0
-472 7 0
-472 15 0
-472 3 0
-472 -5 0
-471 4 0
-471 9 0
-471 2 0
-471 19 0
-471 -18 0
-470 8 0
-470 14 0
-470 17 0
-470 3 0
-470 -18 0
-469 20 0
-469 17 0
-469 9 0
-469 10 0
-469 -18 0
-468 7 0
-468 3 0
-468 9 0
-468 -18 0
-467 4 0
-467 9 0
-467 15 0
-467 6 0
-467 -18 0
-466 5 0
-466 15 0
-466 2 0
-466 7 0
-466 -18 0
-465 6 0
-465 1 0
-465 2 0
-465 -18 0
-464 15 0
-464 4 0
-464 19 0
-464 16 0
-464 -18 0
-463 9 0
-463 5 0
-463 8 0
-463 6 0
-463 -18 0
-462 3 0
-462 6 0
-462 2 0
-462 12 0
-462 -18 0
-461 12 0
-461 1 0
-461 13 0
-461 3 0
-461 -20 0
-460 10 0
-460 3 0
-460 13 0
-460 6 0
-460 -20 0
-459 12 0
-459 10 0
-459 9 0
-459 2 0
-459 -20 0
-458 10 0
-458 18 0
-458 11 0
-458 8 0
-458 -20 0
-457 18 0
-457 15 0
-457 13 0
-457 19 0
-457 -20 0
-456 13 0
-456 18 0
-456 4 0
-456 -20 0
-455 11 0
-455 3 0
-455 6 0
-455 15 0
-455 -20 0
-454 2 0
-454 1 0
-454 18 0
-454 11 0
-454 -20 0
-453 7 0
-453 13 0
-453 17 0
-453 16 0
-453 -20 0
-452 13 0
-452 19 0
-452 17 0
-452 11 0
-452 -20 0
-451 8 0
-451 3 0
-451 14 0
-451 4 0
-451 -12 0
-450 19 0
-450 8 0
-450 11 0
-450 15 0
-450 -12 0
-449 9 0
-449 10 0
-449 -12 0
-448 2 0
-448 10 0
-448 6 0
-448 5 0
-448 -12 0
-447 6 0
-447 20 0
-447 15 0
-447 -12 0
-446 5 0
-446 9 0
-446 7 0
-446 -12 0
-445 6 0
-445 19 0
-445 20 0
-445 7 0
-445 -12 0
-444 4 0
-444 6 0
-444 9 0
-444 18 0
-444 -12 0
-443 18 0
-443 4 0
-443 19 0
-443 6 0
-443 -12 0
-442 11 0
-442 8 0
-442 9 0
-442 20 0
-442 -12 0
-441 18 0
-441 9 0
-441 13 0
-441 4 0
-441 -11 0
-440 20 0
-440 3 0
-440 14 0
-440 9 0
-440 -11 0
-439 7 0
-439 17 0
-439 20 0
-439 10 0
-439 -11 0
-438 16 0
-438 17 0
-438 4 0
-438 10 0
-438 -11 0
-437 20 0
-437 9 0
-437 8 0
-437 3 0
-437 -11 0
-436 7 0
-436 16 0
-436 14 0
-436 17 0
-436 -11 0
-435 1 0
-435 6 0
-435 19 0
-435 -11 0
-434 10 0
-434 13 0
-434 5 0
-434 -11 0
-433 13 0
-433 17 0
-433 5 0
-433 9 0
-433 -11 0
-432 19 0
-432 20 0
-432 15 0
-432 5 0
-432 -11 0
-431 10 0
-431 12 0
-431 8 0
-431 19 0
-431 -6 0
-430 19 0
-430 14 0
-430 16 0
-430 2 0
-430 -6 0
-429 10 0
-429 16 0
-429 14 0
-429 -6 0
-428 17 0
-428 5 0
-428 7 0
-428 -6 0
-427 11 0
-427 19 0
-427 3 0
-427 5 0
-427 -6 0
-426 10 0
-426 4 0
-426 5 0
-426 -6 0
-425 11 0
-425 9 0
-425 4 0
-425 3 0
-425 -6 0
-424 15 0
-424 2 0
-424 19 0
-424 17 0
-424 -6 0
-423 12 0
-423 20 0
-423 7 0
-423 -6 0
-422 5 0
-422 7 0
-422 16 0
-422 17 0
-422 -6 0
-421 13 0
-421 15 0
-421 -14 0
-420 20 0
-420 1 0
-420 17 0
-420 -14 0
-419 7 0
-419 8 0
-419 19 0
-419 -14 0
-418 10 0
-418 8 0
-418 17 0
-418 20 0
-418 -14 0
-417 20 0
-417 11 0
-417 15 0
-417 -14 0
-416 10 0
-416 3 0
-416 5 0
-416 -14 0
-415 5 0
-415 7 0
-415 16 0
-415 10 0
-415 -14 0
-414 2 0
-414 12 0
-414 19 0
-414 -14 0
-413 19 0
-413 3 0
-413 10 0
-413 18 0
-413 -14 0
-412 10 0
-412 13 0
-412 9 0
-412 16 0
-412 -14 0
-411 19 0
-411 14 0
-411 9 0
-411 20 0
-411 -4 0
-410 19 0
-410 14 0
-410 3 0
-410 2 0
-410 -4 0
-409 7 0
-409 18 0
-409 6 0
-409 16 0
-409 -4 0
-408 18 0
-408 17 0
-408 19 0
-408 2 0
-408 -4 0
-407 20 0
-407 10 0
-407 13 0
-407 -4 0
-406 20 0
-406 1 0
-406 -4 0
-405 18 0
-405 10 0
-405 16 0
-405 20 0
-405 -4 0
-404 15 0
-404 1 0
-404 10 0
-404 -4 0
-403 9 0
-403 1 0
-403 19 0
-403 12 0
-403 -4 0
-402 2 0
-402 8 0
-402 18 0
-402 16 0
-402 -4 0
-401 1 0
-401 20 0
-401 13 0
-401 -16 0
-400 19 0
-400 13 0
-400 11 0
-400 12 0
-400 -16 0
-399 14 0
-399 17 0
-399 6 0
-399 11 0
-399 -16 0
-398 11 0
-398 17 0
-398 20 0
-398 13 0
-398 -16 0
-397 11 0
-397 5 0
-397 10 0
-397 20 0
-397 -16 0
-396 6 0
-396 1 0
-396 3 0
-396 13 0
-396 -16 0
-395 9 0
-395 2 0
-395 19 0
-395 18 0
-395 -16 0
-394 8 0
-394 6 0
-394 10 0
-394 5 0
-394 -16 0
-393 4 0
-393 5 0
-393 11 0
-393 -16 0
-392 11 0
-392 8 0
-392 14 0
-392 -16 0
-391 4 0
-391 10 0
-391 12 0
-391 9 0
-391 -15 0
-390 19 0
-390 1 0
-390 10 0
-390 -15 0
-389 20 0
-389 8 0
-389 14 0
-389 -15 0
-388 16 0
-388 14 0
-388 6 0
-388 4 0
-388 -15 0
-387 3 0
-387 7 0
-387 13 0
-387 5 0
-387 -15 0
-386 6 0
-386 13 0
-386 17 0
-386 -15 0
-385 6 0
-385 5 0
-385 2 0
-385 1 0
-385 -15 0
-384 19 0
-384 10 0
-384 18 0
-384 13 0
-384 -15 0
-383 1 0
-383 6 0
-383 2 0
-383 8 0
-383 -15 0
-382 12 0
-382 18 0
-382 10 0
-382 -15 0
-381 3 0
-381 14 0
-381 15 0
-381 -7 0
-380 2 0
-380 4 0
-380 20 0
-380 1 0
-380 -7 0
-379 5 0
-379 20 0
-379 9 0
-379 -7 0
-378 8 0
-378 6 0
-378 4 0
-378 11 0
-378 -7 0
-377 20 0
-377 8 0
-377 18 0
-377 14 0
-377 -7 0
-376 13 0
-376 4 0
-376 8 0
-376 14 0
-376 -7 0
-375 13 0
-375 4 0
-375 19 0
-375 9 0
-375 -7 0
-374 6 0
-374 16 0
-374 14 0
-374 -7 0
-373 6 0
-373 3 0
-373 4 0
-373 -7 0
-372 9 0
-372 5 0
-372 10 0
-372 20 0
-372 -7 0
-371 20 0
-371 13 0
-371 8 0
-371 10 0
-371 -9 0
-370 6 0
-370 1 0
-370 13 0
-370 4 0
-370 -9 0
-369 12 0
-369 17 0
-369 6 0
-369 10 0
-369 -9 0
-368 11 0
-368 18 0
-368 6 0
-368 10 0
-368 -9 0
-367 16 0
-367 18 0
-367 1 0
-367 -9 0
-366 1 0
-366 12 0
-366 17 0
-366 20 0
-366 -9 0
-365 1 0
-365 14 0
-365 10 0
-365 16 0
-365 -9 0
-364 17 0
-364 19 0
-364 10 0
-364 1 0
-364 -9 0
-363 1 0
-363 13 0
-363 12 0
-363 7 0
-363 -9 0
-362 19 0
-362 14 0
-362 18 0
-362 10 0
-362 -9 0
-361 -9 0
-361 -2 0
-361 -20 0
-361 -5 0
-360 -3 0
-360 -16 0
-360 -13 0
-359 -14 0
-359 -1 0
-359 -10 0
-358 -2 0
-358 -15 0
-358 -17 0
-358 -13 0
-357 -4 0
-357 -7 0
-357 -16 0
-357 -9 0
-356 -16 0
-356 -13 0
-356 -19 0
-356 -18 0
-355 -19 0
-355 -4 0
-355 -2 0
-355 -5 0
-354 -13 0
-354 -16 0
-354 -10 0
-354 -6 0
-353 -19 0
-353 -5 0
-353 -6 0
-352 -1 0
-352 -20 0
-352 -7 0
-352 -9 0
-351 -4 0
-351 -19 0
-351 -16 0
-350 -6 0
-350 -9 0
-350 -16 0
-350 -3 0
-349 -18 0
-349 -19 0
-349 -9 0
-349 -10 0
-348 -15 0
-348 -16 0
-348 -4 0
-348 -6 0
-347 -8 0
-347 -6 0
-347 -1 0
-346 -12 0
-346 -20 0
-346 -4 0
-345 -3 0
-345 -8 0
-345 -11 0
-345 -1 0
-344 -6 0
-344 -20 0
-344 -16 0
-344 -13 0
-343 -14 0
-343 -11 0
-343 -16 0
-343 -3 0
-342 -8 0
-342 -19 0
-342 -3 0
-342 -1 0
-341 -18 0
-341 -11 0
-341 -8 0
-341 -7 0
-340 -3 0
-340 -20 0
-340 -11 0
-340 -8 0
-339 -1 0
-339 -3 0
-339 -15 0
-338 -15 0
-338 -20 0
-338 -11 0
-337 -10 0
-337 -19 0
-337 -14 0
-337 -9 0
-336 -10 0
-336 -17 0
-336 -11 0
-336 -6 0
-335 -14 0
-335 -5 0
-335 -6 0
-335 -20 0
-334 -6 0
-334 -1 0
-334 -4 0
-334 -17 0
-333 -15 0
-333 -20 0
-333 -3 0
-333 -18 0
-332 -3 0
-332 -19 0
-332 -6 0
-332 -10 0
-331 -20 0
-331 -1 0
-331 -8 0
-331 -9 0
-330 -16 0
-330 -4 0
-330 -5 0
-330 -14 0
-329 -11 0
-329 -17 0
-329 -1 0
-329 -7 0
-328 -19 0
-328 -7 0
-328 -8 0
-328 -20 0
-327 -10 0
-327 -16 0
-327 -11 0
-327 -9 0
-326 -14 0
-326 -9 0
-326 -6 0
-326 -8 0
-325 -18 0
-325 -10 0
-325 -6 0
-325 -20 0
-324 -20 0
-324 -10 0
-324 -16 0
-324 -11 0
-323 -8 0
-323 -9 0
-323 -12 0
-322 -10 0
-322 -12 0
-322 -1 0
-322 -20 0
-321 -6 0
-321 -12 0
-321 -13 0
-321 -18 0
-320 -18 0
-320 -19 0
-320 -11 0
-320 -4 0
-319 -6 0
-319 -19 0
-319 -4 0
-319 -2 0
-318 -19 0
-318 -3 0
-318 -20 0
-318 -1 0
-317 -10 0
-317 -8 0
-317 -4 0
-317 -15 0
-316 -13 0
-316 -8 0
-316 -1 0
-315 -14 0
-315 -6 0
-315 -16 0
-314 -16 0
-314 -17 0
-314 -8 0
-314 -20 0
-313 -6 0
-313 -19 0
-313 -12 0
-313 -17 0
-312 -13 0
-312 -8 0
-312 -18 0
-312 -14 0
-311 -15 0
-311 -8 0
-311 -13 0
-310 -2 0
-310 -18 0
-310 -11 0
-310 -3 0
-309 -11 0
-309 -14 0
-309 -15 0
-309 -2 0
-308 -9 0
-308 -14 0
-308 -3 0
-308 -4 0
-307 -5 0
-307 -4 0
-307 -15 0
-307 -6 0
-306 -11 0
-306 -18 0
-306 -2 0
-306 -6 0
-305 -19 0
-305 -16 0
-305 -9 0
-304 -6 0
-304 -3 0
-304 -11 0
-304 -20 0
-303 -4 0
-303 -10 0
-303 -1 0
-303 -17 0
-302 -34 -35 -22 -33 23 0
-301 -37 -35 -38 23 0
-300 -35 -34 -31 -25 23 0
-299 -40 -38 -31 23 0
-298 -25 -34 -24 -27 23 0
-297 -30 -27 -21 -26 23 0
-296 -38 -27 -30 -26 23 0
-295 -26 -28 -22 -34 23 0
-294 -21 -36 -24 23 0
-293 -35 -39 -32 -40 23 0
-292 -31 -29 -26 -30 33 0
-291 -29 -22 -35 -30 33 0
-290 -31 -38 -28 -21 33 0
-289 -40 -26 -31 -36 33 0
-288 -26 -21 -29 33 0
-287 -32 -36 -38 -27 33 0
-286 -26 -22 -24 -21 33 0
-285 -38 -22 -27 -23 33 0
-284 -26 -39 -29 -23 33 0
-283 -27 -25 -40 33 0
-282 -38 -22 -29 -24 37 0
-281 -29 -24 -38 -36 37 0
-280 -30 -29 -28 -40 37 0
-279 -36 -40 -21 -26 37 0
-278 -32 -39 37 0
-277 -35 -36 -40 -30 37 0
-276 -25 -36 -32 -40 37 0
-275 -28 -30 -24 37 0
-274 -40 -24 -28 -35 37 0
-273 -38 -24 -32 -31 37 0
-272 -21 -22 -24 -40 28 0
-271 -31 -30 -39 28 0
-270 -40 -39 -31 28 0
-269 -30 -27 -24 -34 28 0
-268 -30 -27 -35 -38 28 0
-267 -33 -36 -31 -40 28 0
-266 -31 -33 -29 -22 28 0
-265 -31 -39 -27 28 0
-264 -30 -39 -21 -31 28 0
-263 -23 -24 -25 -31 28 0
-262 -29 -34 -40 -30 39 0
-261 -33 -36 -21 -27 39 0
-260 -27 -33 -30 39 0
-259 -40 -28 39 0
-258 -34 -38 -36 -35 39 0
-257 -26 -25 -36 -32 39 0
-256 -26 -21 -23 -35 39 0
-255 -29 -23 -30 39 0
-254 -23 -25 -28 -27 39 0
-253 -27 -33 -32 -21 39 0
-252 -39 -30 -22 21 0
-251 -23 -35 -28 -38 21 0
-250 -40 -28 -37 -25 21 0
-249 -40 -27 -37 21 0
-248 -34 -37 -33 21 0
-247 -23 -26 -24 -28 21 0
-246 -28 -26 -36 -30 21 0
-245 -40 -23 -31 -27 21 0
-244 -25 -39 -24 -28 21 0
-243 -34 -35 -29 21 0
-242 -32 -29 -37 -38 30 0
-241 -39 -31 -27 30 0
-240 -21 -32 -31 30 0
-239 -33 -21 -27 -26 30 0
-238 -25 -40 -21 -27 30 0
-237 -40 -37 -21 -34 30 0
-236 -36 -37 -26 -22 30 0
-235 -31 -38 -24 -25 30 0
-234 -34 -29 -23 -35 30 0
-233 -28 -29 -23 -24 30 0
-232 -23 -30 -26 -40 22 0
-231 -29 -26 -35 22 0
-230 -32 -28 -29 -25 22 0
-229 -38 -37 -34 22 0
-228 -25 -30 -39 22 0
-227 -30 -27 -24 -21 22 0
-226 -40 -31 -25 -38 22 0
-225 -31 -36 -37 -29 22 0
-224 -33 -31 -40 -34 22 0
-223 -35 -29 -33 22 0
-222 -40 -35 25 0
-221 -29 -21 -31 -28 25 0
-220 -31 -37 -30 -29 25 0
-219 -22 -36 -31 25 0
-218 -27 -36 -28 -23 25 0
-217 -22 -39 -27 25 0
-216 -40 -37 -38 -29 25 0
-215 -24 -23 -36 -21 25 0
-214 -35 -37 -38 -36 25 0
-213 -27 -35 -23 25 0
-212 -24 -29 -22 -39 38 0
-211 -28 -34 -37 -23 38 0
-210 -40 -37 -29 -30 38 0
-209 -27 -23 -29 38 0
-208 -24 -29 -35 -26 38 0
-207 -25 -35 -22 -27 38 0
-206 -26 -21 -22 38 0
-205 -35 -24 -39 -36 38 0
-204 -29 -25 -28 -26 38 0
-203 -23 -26 -22 -32 38 0
-202 -32 -21 -33 -23 40 0
-201 -30 -23 -33 -26 40 0
-200 -32 -30 -29 -22 40 0
-199 -30 -38 -31 -28 40 0
-198 -38 -35 -33 -39 40 0
-197 -33 -38 -24 40 0
-196 -31 -23 -26 -35 40 0
-195 -22 -21 -38 -31 40 0
-194 -27 -33 -37 -36 40 0
-193 -33 -39 -37 -31 40 0
-192 -28 -23 -34 -24 32 0
-191 -39 -28 -31 -35 32 0
-190 -29 -30 32 0
-189 -22 -30 -26 -25 32 0
-188 -26 -40 -35 32 0
-187 -25 -29 -27 32 0
-186 -26 -39 -40 -27 32 0
-185 -24 -26 -29 -38 32 0
-184 -38 -24 -39 -26 32 0
-183 -31 -28 -29 -40 32 0
-182 -38 -29 -33 -24 31 0
-181 -40 -23 -34 -29 31 0
-180 -27 -37 -40 -30 31 0
-179 -36 -37 -24 -30 31 0
-178 -40 -29 -28 -23 31 0
-177 -27 -36 -34 -37 31 0
-176 -21 -26 -39 31 0
-175 -30 -33 -25 31 0
-174 -33 -37 -25 -29 31 0
-173 -39 -40 -35 -25 31 0
-172 -30 -32 -28 -39 26 0
-171 -39 -34 -36 -22 26 0
-170 -30 -36 -34 26 0
-169 -37 -25 -27 26 0
-168 -31 -39 -23 -25 26 0
-167 -30 -24 -25 26 0
-166 -31 -29 -24 -23 26 0
-165 -35 -22 -39 -37 26 0
-164 -32 -40 -27 26 0
-163 -25 -27 -36 -37 26 0
-162 -33 -35 34 0
-161 -40 -21 -37 34 0
-160 -27 -28 -39 34 0
-159 -30 -28 -37 -40 34 0
-158 -40 -31 -35 34 0
-157 -30 -23 -25 34 0
-156 -25 -27 -36 -30 34 0
-155 -22 -32 -39 34 0
-154 -39 -23 -30 -38 34 0
-153 -30 -33 -29 -36 34 0
-152 -39 -34 -29 -40 24 0
-151 -39 -34 -23 -22 24 0
-150 -27 -38 -26 -36 24 0
-149 -38 -37 -39 -22 24 0
-148 -40 -30 -33 24 0
-147 -40 -21 24 0
-146 -38 -30 -36 -40 24 0
-145 -35 -21 -30 24 0
-144 -29 -21 -39 -32 24 0
-143 -22 -28 -38 -36 24 0
-142 -21 -40 -33 36 0
-141 -39 -33 -31 -32 36 0
-140 -34 -37 -26 -31 36 0
-139 -31 -37 -40 -33 36 0
-138 -31 -25 -30 -40 36 0
-137 -26 -21 -23 -33 36 0
-136 -29 -22 -39 -38 36 0
-135 -28 -26 -30 -25 36 0
-134 -24 -25 -31 36 0
-133 -31 -28 -34 36 0
-132 -24 -30 -32 -29 35 0
-131 -39 -21 -30 35 0
-130 -40 -28 -34 35 0
-129 -36 -34 -26 -24 35 0
-128 -23 -27 -33 -25 35 0
-127 -26 -33 -37 35 0
-126 -26 -25 -22 -21 35 0
-125 -39 -30 -38 -33 35 0
-124 -21 -26 -22 -28 35 0
-123 -32 -38 -30 35 0
-122 -23 -34 -35 27 0
-121 -22 -24 -40 -21 27 0
-120 -25 -40 -29 27 0
-119 -28 -26 -24 -31 27 0
-118 -40 -28 -38 -34 27 0
-117 -33 -24 -28 -34 27 0
-116 -33 -24 -39 -29 27 0
-115 -26 -36 -34 27 0
-114 -26 -23 -24 27 0
-113 -29 -25 -30 -40 27 0
-112 -40 -33 -28 -30 29 0
-111 -26 -21 -33 -24 29 0
-110 -32 -37 -26 -30 29 0
-109 -31 -38 -26 -30 29 0
-108 -36 -38 -21 29 0
-107 -21 -32 -37 -40 29 0
-106 -21 -34 -30 -36 29 0
-105 -37 -39 -30 -21 29 0
-104 -21 -33 -32 -27 29 0
-103 -39 -34 -38 -30 29 0
-102 29 22 40 25 0
-101 23 36 33 0
-100 34 21 30 0
-99 22 35 37 33 0
-98 24 27 36 29 0
-97 36 33 39 38 0
-96 39 24 22 25 0
-95 33 36 30 26 0
-94 39 25 26 0
-93 21 40 27 29 0
-92 24 39 36 0
-91 26 29 36 23 0
-90 38 39 29 30 0
-89 35 36 24 26 0
-88 28 26 21 0
-87 32 40 24 0
-86 23 28 31 21 0
-85 26 40 36 33 0
-84 34 31 36 23 0
-83 28 39 23 21 0
-82 38 31 28 27 0
-81 23 40 31 28 0
-80 21 23 35 0
-79 35 40 31 0
-78 30 39 34 29 0
-77 30 37 31 26 0
-76 34 25 26 40 0
-75 26 21 24 37 0
-74 35 40 23 38 0
-73 23 39 26 30 0
-72 40 21 28 29 0
-71 36 24 25 34 0
-70 31 37 21 27 0
-69 39 27 28 40 0
-68 30 36 31 29 0
-67 34 29 26 28 0
-66 38 30 26 40 0
-65 40 30 36 31 0
-64 28 29 32 0
-63 30 32 21 40 0
-62 26 32 33 38 0
-61 38 39 31 24 0
-60 26 39 24 22 0
-59 39 23 40 21 0
-58 30 28 24 35 0
-57 33 28 21 0
-56 34 26 36 0
-55 36 37 28 40 0
-54 26 39 32 37 0
-53 33 28 38 34 0
-52 35 28 33 0
-51 22 38 31 23 0
-50 31 34 35 22 0
-49 29 34 23 24 0
-48 25 24 35 26 0
-47 31 38 22 26 0
-46 39 36 29 0
-45 26 23 31 40 0
-44 24 30 21 37 0
-43 302 0
-43 301 0
-43 300 0
-43 299 0
-43 298 0
-43 297 0
-43 296 0
-43 295 0
-43 294 0
-43 293 0
-43 292 0
-43 291 0
-43 290 0
-43 289 0
-43 288 0
-43 287 0
-43 286 0
-43 285 0
-43 284 0
-43 283 0
-43 282 0
-43 281 0
-43 280 0
-43 279 0
-43 278 0
-43 277 0
-43 276 0
-43 275 0
-43 274 0
-43 273 0
-43 272 0
-43 271 0
-43 270 0
-43 269 0
-43 268 0
-43 267 0
-43 266 0
-43 265 0
-43 264 0
-43 263 0
-43 262 0
-43 261 0
-43 260 0
-43 259 0
-43 258 0
-43 257 0
-43 256 0
-43 255 0
-43 254 0
-43 253 0
-43 252 0
-43 251 0
-43 250 0
-43 249 0
-43 248 0
-43 247 0
-43 246 0
-43 245 0
-43 244 0
-43 243 0
-43 242 0
-43 241 0
-43 240 0
-43 239 0
-43 238 0
-43 237 0
-43 236 0
-43 235 0
-43 234 0
-43 233 0
-43 232 0
-43 231 0
-43 230 0
-43 229 0
-43 228 0
-43 227 0
-43 226 0
-43 225 0
-43 224 0
-43 223 0
-43 222 0
-43 221 0
-43 220 0
-43 219 0
-43 218 0
-43 217 0
-43 216 0
-43 215 0
-43 214 0
-43 213 0
-43 212 0
-43 211 0
-43 210 0
-43 209 0
-43 208 0
-43 207 0
-43 206 0
-43 205 0
-43 204 0
-43 203 0
-43 202 0
-43 201 0
-43 200 0
-43 199 0
-43 198 0
-43 197 0
-43 196 0
-43 195 0
-43 194 0
-43 193 0
-43 192 0
-43 191 0
-43 190 0
-43 189 0
-43 188 0
-43 187 0
-43 186 0
-43 185 0
-43 184 0
-43 183 0
-43 182 0
-43 181 0
-43 180 0
-43 179 0
-43 178 0
-43 177 0
-43 176 0
-43 175 0
-43 174 0
-43 173 0
-43 172 0
-43 171 0
-43 170 0
-43 169 0
-43 168 0
-43 167 0
-43 166 0
-43 165 0
-43 164 0
-43 163 0
-43 162 0
-43 161 0
-43 160 0
-43 159 0
-43 158 0
-43 157 0
-43 156 0
-43 155 0
-43 154 0
-43 153 0
-43 152 0
-43 151 0
-43 150 0
-43 149 0
-43 148 0
-43 147 0
-43 146 0
-43 145 0
-43 144 0
-43 143 0
-43 142 0
-43 141 0
-43 140 0
-43 139 0
-43 138 0
-43 137 0
-43 136 0
-43 135 0
-43 134 0
-43 133 0
-43 132 0
-43 131 0
-43 130 0
-43 129 0
-43 128 0
-43 127 0
-43 126 0
-43 125 0
-43 124 0
-43 123 0
-43 122 0
-43 121 0
-43 120 0
-43 119 0
-43 118 0
-43 117 0
-43 116 0
-43 115 0
-43 114 0
-43 113 0
-43 112 0
-43 111 0
-43 110 0
-43 109 0
-43 108 0
-43 107 0
-43 106 0
-43 105 0
-43 104 0
-43 103 0
-43 102 0
-43 101 0
-43 100 0
-43 99 0
-43 98 0
-43 97 0
-43 96 0
-43 95 0
-43 94 0
-43 93 0
-43 92 0
-43 91 0
-43 90 0
-43 89 0
-43 88 0
-43 87 0
-43 86 0
-43 85 0
-43 84 0
-43 83 0
-43 82 0
-43 81 0
-43 80 0
-43 79 0
-43 78 0
-43 77 0
-43 76 0
-43 75 0
-43 74 0
-43 73 0
-43 72 0
-43 71 0
-43 70 0
-43 69 0
-43 68 0
-43 67 0
-43 66 0
-43 65 0
-43 64 0
-43 63 0
-43 62 0
-43 61 0
-43 60 0
-43 59 0
-43 58 0
-43 57 0
-43 56 0
-43 55 0
-43 54 0
-43 53 0
-43 52 0
-43 51 0
-43 50 0
-43 49 0
-43 48 0
-43 47 0
-43 46 0
-43 45 0
-43 44 0
-42 561 560 559 558 557 556 555 554 553 552 551 550 549 548 547 546 545 544 543 542 541 540 539 538 537 536 535 534 533 532 531 530 529 528 527 526 525 524 523 522 521 520 519 518 517 516 515 514 513 512 511 510 509 508 507 506 505 504 503 502 501 500 499 498 497 496 495 494 493 492 491 490 489 488 487 486 485 484 483 482 481 480 479 478 477 476 475 474 473 472 471 470 469 468 467 466 465 464 463 462 461 460 459 458 457 456 455 454 453 452 451 450 449 448 447 446 445 444 443 442 441 440 439 438 437 436 435 434 433 432 431 430 429 428 427 426 425 424 423 422 421 420 419 418 417 416 415 414 413 412 411 410 409 408 407 406 405 404 403 402 401 400 399 398 397 396 395 394 393 392 391 390 389 388 387 386 385 384 383 382 381 380 379 378 377 376 375 374 373 372 371 370 369 368 367 366 365 364 363 362 361 360 359 358 357 356 355 354 353 352 351 350 349 348 347 346 345 344 343 342 341 340 339 338 337 336 335 334 333 332 331 330 329 328 327 326 325 324 323 322 321 320 319 318 317 316 315 314 313 312 311 310 309 308 307 306 305 304 303 43 0
-41 622 0
-41 621 0
-41 620 0
-41 619 0
-41 618 0
-41 617 0
-41 616 0
-41 615 0
-41 614 0
-41 613 0
-41 612 0
-41 611 0
-41 610 0
-41 609 0
-41 608 0
-41 607 0
-41 606 0
-41 605 0
-41 604 0
-41 603 0
-41 562 0
-41 42 0
41 -3 -13 0

